&CONTROL
   calculation      = 'scf'
   tstress          = .true.
   tprnfor          = .true.
   outdir           = './tmp'
   pseudo_dir       = '/home/krojas/apps/qe_pseudo/gbrv'
/
&SYSTEM
   ecutwfc          = 50
   ecutrho          = 400
   occupations      = 'smearing'
   degauss          = 0.01
   input_dft        = 'pbe'
   ntyp             = 1
   nat              = 1
   ibrav            = 0
/
&ELECTRONS
   electron_maxstep = 100
   conv_thr         = 1e-06
   mixing_mode      = 'plain'
   mixing_beta      = 0.7
   diagonalization  = 'david'
/
&IONS
/
&CELL
/

ATOMIC_SPECIES
Na 22.98976928 na_pbe_v1.5.uspp.F.UPF

K_POINTS automatic
1 1 1  0 0 0

CELL_PARAMETERS angstrom
30.00000000000000 0.00000000000000 0.00000000000000
0.00000000000000 30.00000000000000 0.00000000000000
0.00000000000000 0.00000000000000 30.00000000000000

ATOMIC_POSITIONS angstrom
Na 0.0000000000 0.0000000000 0.0000000000 

